500
1000
494
494
493
492
490
489
487
487
486
485
485
485
485
483
483
482
482
481
481
480
478
477
476
476
475
475
475
474
474
474
474
473
473
472
471
471
471
471
470
470
470
467
467
467
467
466
466
466
466
464
464
464
463
463
460
460
459
459
459
458
458
458
456
455
455
455
454
452
452
452
451
450
449
447
446
446
446
446
445
445
444
444
443
442
442
441
441
441
440
438
438
437
437
436
436
435
435
434
433
432
432
432
431
431
430
427
427
427
426
426
425
425
423
423
423
422
422
422
421
421
420
420
419
418
417
417
417
416
416
416
413
413
413
412
412
411
410
410
409
409
407
407
407
407
405
404
404
402
402
400
399
398
396
396
395
394
394
394
393
393
393
391
390
389
389
389
388
388
388
387
386
385
385
384
384
383
383
382
382
382
380
380
380
380
379
379
378
378
378
378
377
377
375
375
374
373
373
373
372
371
370
370
369
369
368
368
367
366
366
366
365
364
364
364
364
364
361
361
361
360
359
359
359
358
357
357
355
355
354
354
354
353
352
352
351
351
350
349
349
349
349
348
347
347
346
345
345
345
345
344
343
343
343
343
342
342
341
341
341
341
340
338
338
337
336
336
336
335
335
335
334
334
332
331
330
330
330
329
329
329
329
328
328
328
327
327
325
325
325
325
323
323
322
322
321
320
319
318
318
317
316
315
315
315
314
313
313
313
312
311
310
309
307
307
306
306
306
306
304
304
303
303
302
302
300
300
300
299
298
298
297
297
296
295
295
294
293
293
292
291
291
291
290
288
286
285
285
284
284
283
282
282
282
279
278
277
276
276
276
275
274
273
273
272
272
271
270
270
270
269
269
266
266
265
262
262
261
261
260
260
256
255
253
253
251
251
250
249
249
246
246
242
241
241
241
240
240
239
239
237
236
235
235
235
234
233
233
233
232
232
232
230
229
228
227
226
225
224
223
223
222
222
220
220
220
219
219
217
217
216
215
215
215
214
213
212
212
211
210
210
209
208
208
208
208
207
207
206
206
205
205
205
204
203
203
201
200
199
199
198
198
198
198
197
196
196
195
195
194
194
190
190
190
190
189
186
186
184
183
183
181
180
179
179
177
177
176
175
174
174
174
174
173
172
171
171
170
168
167
167
